(set-logic QF_UF)
(declare-fun circuit () Bool)
(declare-fun grn () Bool)
(declare-fun org () Bool)
(declare-fun rd1 () Bool)
(declare-fun rd2 () Bool)
(assert (not rd1))
(assert (or (not (= (not (not rd1)) rd1)) (not (not (not rd1))) rd1))
(assert (= (not (not rd1)) rd1))
(assert (not (not rd1)))
(check-sat)
(exit)
